c "480754.clq"
p edge 138 536
e 1 5
e 1 6
e 1 9
e 1 15
e 1 22
e 1 28
e 1 40
e 1 46
e 1 49
e 1 98
e 1 101
e 1 108
e 1 136
e 2 5
e 2 7
e 2 8
e 2 9
e 2 10
e 2 11
e 2 12
e 2 19
e 2 20
e 2 23
e 2 28
e 2 33
e 2 37
e 2 39
e 2 40
e 2 44
e 2 51
e 2 54
e 2 58
e 2 63
e 2 64
e 2 75
e 2 103
e 2 107
e 2 110
e 2 116
e 2 129
e 2 133
e 2 134
e 2 135
e 3 5
e 3 6
e 3 9
e 3 13
e 3 98
e 4 5
e 4 6
e 4 7
e 4 14
e 4 16
e 4 18
e 4 36
e 4 50
e 4 67
e 4 69
e 4 73
e 4 75
e 4 83
e 4 87
e 5 6
e 5 7
e 5 8
e 5 10
e 5 16
e 5 17
e 5 19
e 5 20
e 5 24
e 5 25
e 5 26
e 5 27
e 5 29
e 5 30
e 5 31
e 5 35
e 5 36
e 5 38
e 5 39
e 5 41
e 5 42
e 5 43
e 5 49
e 5 60
e 5 70
e 5 80
e 5 93
e 5 102
e 5 119
e 6 7
e 6 8
e 6 9
e 6 10
e 6 13
e 6 14
e 6 15
e 6 18
e 6 19
e 6 20
e 6 29
e 6 30
e 6 34
e 6 39
e 6 45
e 6 51
e 6 52
e 6 56
e 6 57
e 6 62
e 6 65
e 6 69
e 6 77
e 6 79
e 6 82
e 6 90
e 6 94
e 6 95
e 6 114
e 6 115
e 6 119
e 6 125
e 6 128
e 6 135
e 7 8
e 7 15
e 7 19
e 7 21
e 7 26
e 7 31
e 7 32
e 7 34
e 7 38
e 7 43
e 7 44
e 7 51
e 7 52
e 7 53
e 7 65
e 7 72
e 7 74
e 7 77
e 7 82
e 7 87
e 7 96
e 7 102
e 7 115
e 7 117
e 7 130
e 8 11
e 8 12
e 8 14
e 8 16
e 8 30
e 8 37
e 8 48
e 8 58
e 8 67
e 8 72
e 8 84
e 8 85
e 8 90
e 8 95
e 8 106
e 8 118
e 8 123
e 8 132
e 8 136
e 8 137
e 9 10
e 9 11
e 9 12
e 9 13
e 9 23
e 9 24
e 9 25
e 9 37
e 9 38
e 9 40
e 9 43
e 9 47
e 9 53
e 9 60
e 9 61
e 9 67
e 9 71
e 9 74
e 9 96
e 9 103
e 9 105
e 9 124
e 9 129
e 10 11
e 10 21
e 10 22
e 10 34
e 10 42
e 10 54
e 10 56
e 10 57
e 10 63
e 10 84
e 11 12
e 11 13
e 11 16
e 11 17
e 11 18
e 11 21
e 11 22
e 11 23
e 11 25
e 11 32
e 11 33
e 11 36
e 11 41
e 11 43
e 11 44
e 11 62
e 11 64
e 11 65
e 11 66
e 11 76
e 11 77
e 11 91
e 11 95
e 11 96
e 11 137
e 12 17
e 12 25
e 12 28
e 12 45
e 12 51
e 12 60
e 12 68
e 12 71
e 12 83
e 12 89
e 12 99
e 12 108
e 13 14
e 13 21
e 13 34
e 13 52
e 13 56
e 13 58
e 13 63
e 13 64
e 13 78
e 13 79
e 13 94
e 13 105
e 13 108
e 14 15
e 14 17
e 14 26
e 14 28
e 14 30
e 14 42
e 14 45
e 14 48
e 14 57
e 14 60
e 14 61
e 14 82
e 14 85
e 14 92
e 14 126
e 15 18
e 15 47
e 15 121
e 16 22
e 16 29
e 16 33
e 16 40
e 16 61
e 16 84
e 16 97
e 16 103
e 16 126
e 17 76
e 17 113
e 17 118
e 17 119
e 18 20
e 18 24
e 18 26
e 18 31
e 18 33
e 18 38
e 18 71
e 18 85
e 18 121
e 19 103
e 20 23
e 20 27
e 20 35
e 20 41
e 20 45
e 20 61
e 20 67
e 20 68
e 20 74
e 20 93
e 20 97
e 20 102
e 20 123
e 21 27
e 21 53
e 21 73
e 21 90
e 21 114
e 21 116
e 21 137
e 22 29
e 22 35
e 22 46
e 22 49
e 22 64
e 22 66
e 22 70
e 22 122
e 23 24
e 23 54
e 23 68
e 23 76
e 23 83
e 23 94
e 23 100
e 23 115
e 23 126
e 23 138
e 24 31
e 24 32
e 24 47
e 24 49
e 24 54
e 24 63
e 24 66
e 24 73
e 24 75
e 24 89
e 24 118
e 24 120
e 24 128
e 24 130
e 25 37
e 25 42
e 25 111
e 26 27
e 26 57
e 26 70
e 26 110
e 26 112
e 26 125
e 27 35
e 27 47
e 27 111
e 27 129
e 28 48
e 28 131
e 29 36
e 29 92
e 29 96
e 30 52
e 30 72
e 30 82
e 30 85
e 30 86
e 31 32
e 31 41
e 31 50
e 31 59
e 31 74
e 31 89
e 31 92
e 31 105
e 31 114
e 31 133
e 32 80
e 32 106
e 32 113
e 32 128
e 33 39
e 33 59
e 33 99
e 33 127
e 34 44
e 34 46
e 34 128
e 35 75
e 36 56
e 36 88
e 36 91
e 36 129
e 37 48
e 37 55
e 37 65
e 37 87
e 38 66
e 38 83
e 38 102
e 39 50
e 39 109
e 39 130
e 40 70
e 40 78
e 40 91
e 40 109
e 40 112
e 41 46
e 41 101
e 41 112
e 41 126
e 42 55
e 42 58
e 42 122
e 43 55
e 43 77
e 43 93
e 43 104
e 44 55
e 44 59
e 44 62
e 44 68
e 44 80
e 44 116
e 45 53
e 45 62
e 45 72
e 45 122
e 45 125
e 46 99
e 46 104
e 46 134
e 48 59
e 48 108
e 48 132
e 48 137
e 49 50
e 49 106
e 50 88
e 51 93
e 51 133
e 52 86
e 52 100
e 54 81
e 55 69
e 55 71
e 55 76
e 55 81
e 55 91
e 55 101
e 56 112
e 57 86
e 57 133
e 60 92
e 60 107
e 60 124
e 60 132
e 61 86
e 61 109
e 61 115
e 61 123
e 62 69
e 62 89
e 62 114
e 62 125
e 62 131
e 63 78
e 64 73
e 64 81
e 68 79
e 69 88
e 70 94
e 70 124
e 71 79
e 71 138
e 72 80
e 72 81
e 72 110
e 72 134
e 73 90
e 73 135
e 74 98
e 74 120
e 75 78
e 75 84
e 75 88
e 75 97
e 75 109
e 75 138
e 77 101
e 77 106
e 77 111
e 77 113
e 78 123
e 78 130
e 79 120
e 80 95
e 80 117
e 80 138
e 81 98
e 81 107
e 82 136
e 83 100
e 85 104
e 85 117
e 85 119
e 85 134
e 86 87
e 86 99
e 88 107
e 88 110
e 88 121
e 89 136
e 90 97
e 90 113
e 91 100
e 91 120
e 92 131
e 93 117
e 94 111
e 96 127
e 97 105
e 97 121
e 97 127
e 98 104
e 98 118
e 104 116
e 104 122
e 105 132
e 110 135
e 111 131
e 112 127
e 113 124
